c Created with the Wolfram Language : www.wolfram.com
c 
p edge 90 595
e 4 6
e 4 7
e 7 10
e 3 11
e 9 11
e 1 12
e 2 12
e 8 12
e 3 14
e 6 16
e 7 16
e 11 16
e 6 17
e 14 17
e 2 18
e 7 18
e 1 19
e 10 19
e 13 19
e 18 19
e 2 20
e 7 20
e 10 20
e 12 20
e 6 21
e 14 21
e 16 21
e 17 21
e 11 22
e 15 22
e 2 23
e 10 23
e 17 23
e 20 23
e 1 24
e 8 24
e 3 25
e 9 25
e 22 25
e 1 26
e 2 26
e 14 26
e 15 26
e 3 27
e 15 28
e 21 28
e 22 28
e 1 29
e 2 29
e 5 29
e 23 29
e 24 29
e 6 30
e 8 30
e 12 30
e 21 30
e 23 30
e 27 30
e 17 31
e 4 32
e 12 32
e 15 32
e 26 32
e 31 32
e 4 33
e 10 33
e 20 33
e 23 33
e 31 33
e 1 34
e 4 34
e 7 34
e 17 34
e 18 34
e 21 34
e 28 34
e 31 34
e 32 34
e 9 35
e 12 35
e 22 35
e 23 35
e 6 36
e 14 36
e 8 37
e 9 37
e 15 37
e 25 37
e 27 37
e 30 37
e 31 37
e 19 38
e 23 38
e 15 39
e 17 39
e 21 39
e 8 40
e 16 40
e 17 40
e 18 40
e 30 40
e 13 41
e 23 41
e 35 41
e 39 41
e 40 41
e 4 42
e 18 42
e 30 42
e 32 42
e 39 42
e 41 42
e 12 43
e 19 43
e 20 43
e 28 43
e 36 43
e 39 43
e 41 43
e 3 44
e 23 44
e 35 44
e 43 44
e 3 45
e 7 45
e 9 45
e 15 45
e 20 45
e 25 45
e 27 45
e 32 45
e 36 45
e 3 46
e 7 46
e 11 46
e 14 46
e 18 46
e 23 46
e 35 46
e 39 46
e 40 46
e 6 47
e 13 47
e 27 47
e 28 47
e 32 47
e 40 47
e 43 47
e 44 47
e 46 47
e 7 48
e 8 48
e 15 48
e 18 48
e 21 48
e 33 48
e 35 48
e 36 48
e 39 48
e 40 48
e 45 48
e 5 49
e 7 49
e 26 49
e 34 49
e 12 50
e 14 50
e 19 50
e 22 50
e 33 50
e 2 51
e 4 51
e 7 51
e 26 51
e 40 51
e 45 51
e 49 51
e 50 51
e 8 52
e 23 52
e 31 52
e 36 52
e 46 52
e 11 53
e 13 53
e 19 53
e 23 53
e 26 53
e 28 53
e 29 53
e 36 53
e 40 53
e 50 53
e 5 54
e 8 54
e 10 54
e 13 54
e 30 54
e 37 54
e 46 54
e 48 54
e 52 54
e 2 55
e 9 55
e 12 55
e 26 55
e 28 55
e 52 55
e 2 56
e 10 56
e 23 56
e 25 56
e 29 56
e 33 56
e 38 56
e 45 56
e 48 56
e 6 57
e 11 57
e 24 57
e 27 57
e 42 57
e 44 57
e 52 57
e 4 58
e 5 58
e 8 58
e 21 58
e 23 58
e 31 58
e 32 58
e 40 58
e 41 58
e 51 58
e 4 59
e 13 59
e 14 59
e 24 59
e 41 59
e 49 59
e 51 59
e 54 59
e 1 60
e 5 60
e 6 60
e 13 60
e 15 60
e 20 60
e 21 60
e 32 60
e 44 60
e 46 60
e 47 60
e 53 60
e 8 61
e 9 61
e 12 61
e 13 61
e 33 61
e 43 61
e 48 61
e 56 61
e 57 61
e 60 61
e 5 62
e 12 62
e 13 62
e 19 62
e 47 62
e 59 62
e 61 62
e 9 63
e 10 63
e 24 63
e 26 63
e 33 63
e 36 63
e 46 63
e 54 63
e 55 63
e 59 63
e 11 64
e 13 64
e 20 64
e 31 64
e 32 64
e 35 64
e 36 64
e 53 64
e 62 64
e 14 65
e 15 65
e 18 65
e 24 65
e 31 65
e 37 65
e 64 65
e 8 66
e 10 66
e 30 66
e 32 66
e 34 66
e 42 66
e 49 66
e 55 66
e 3 67
e 13 67
e 34 67
e 42 67
e 46 67
e 49 67
e 61 67
e 2 68
e 10 68
e 19 68
e 23 68
e 63 68
e 8 69
e 9 69
e 14 69
e 16 69
e 21 69
e 23 69
e 31 69
e 42 69
e 45 69
e 46 69
e 49 69
e 51 69
e 60 69
e 5 70
e 8 70
e 26 70
e 27 70
e 35 70
e 40 70
e 53 70
e 59 70
e 60 70
e 66 70
e 69 70
e 4 71
e 5 71
e 7 71
e 28 71
e 31 71
e 35 71
e 39 71
e 45 71
e 56 71
e 68 71
e 70 71
e 5 72
e 6 72
e 23 72
e 31 72
e 32 72
e 36 72
e 38 72
e 42 72
e 52 72
e 62 72
e 1 73
e 4 73
e 6 73
e 9 73
e 13 73
e 14 73
e 15 73
e 36 73
e 38 73
e 46 73
e 53 73
e 10 74
e 13 74
e 14 74
e 15 74
e 26 74
e 27 74
e 28 74
e 33 74
e 45 74
e 51 74
e 55 74
e 67 74
e 2 75
e 12 75
e 13 75
e 17 75
e 18 75
e 21 75
e 27 75
e 31 75
e 38 75
e 40 75
e 42 75
e 46 75
e 48 75
e 52 75
e 60 75
e 73 75
e 1 76
e 13 76
e 18 76
e 21 76
e 32 76
e 47 76
e 52 76
e 57 76
e 4 77
e 9 77
e 10 77
e 14 77
e 24 77
e 26 77
e 31 77
e 36 77
e 37 77
e 45 77
e 47 77
e 48 77
e 52 77
e 54 77
e 59 77
e 63 77
e 70 77
e 71 77
e 8 78
e 20 78
e 27 78
e 48 78
e 71 78
e 72 78
e 2 79
e 10 79
e 15 79
e 25 79
e 30 79
e 38 79
e 42 79
e 43 79
e 47 79
e 48 79
e 53 79
e 63 79
e 68 79
e 76 79
e 6 80
e 8 80
e 18 80
e 31 80
e 37 80
e 42 80
e 45 80
e 48 80
e 52 80
e 55 80
e 56 80
e 60 80
e 67 80
e 68 80
e 74 80
e 79 80
e 4 81
e 7 81
e 11 81
e 13 81
e 16 81
e 19 81
e 32 81
e 42 81
e 52 81
e 53 81
e 67 81
e 71 81
e 3 82
e 5 82
e 8 82
e 24 82
e 25 82
e 28 82
e 29 82
e 30 82
e 32 82
e 34 82
e 45 82
e 48 82
e 53 82
e 62 82
e 71 82
e 76 82
e 79 82
e 18 83
e 34 83
e 43 83
e 48 83
e 51 83
e 54 83
e 61 83
e 64 83
e 65 83
e 82 83
e 1 84
e 5 84
e 29 84
e 34 84
e 44 84
e 48 84
e 50 84
e 52 84
e 56 84
e 61 84
e 62 84
e 64 84
e 65 84
e 67 84
e 69 84
e 70 84
e 81 84
e 10 85
e 17 85
e 18 85
e 25 85
e 37 85
e 65 85
e 66 85
e 16 86
e 22 86
e 31 86
e 41 86
e 44 86
e 47 86
e 48 86
e 53 86
e 58 86
e 67 86
e 73 86
e 75 86
e 81 86
e 84 86
e 2 87
e 7 87
e 10 87
e 18 87
e 22 87
e 41 87
e 44 87
e 52 87
e 53 87
e 67 87
e 71 87
e 75 87
e 77 87
e 78 87
e 83 87
e 86 87
e 2 88
e 5 88
e 8 88
e 11 88
e 12 88
e 13 88
e 22 88
e 43 88
e 47 88
e 53 88
e 71 88
e 79 88
e 2 89
e 6 89
e 8 89
e 18 89
e 23 89
e 30 89
e 39 89
e 48 89
e 49 89
e 70 89
e 75 89
e 78 89
e 84 89
e 86 89
e 2 90
e 7 90
e 16 90
e 17 90
e 28 90
e 30 90
e 33 90
e 41 90
e 44 90
e 58 90
e 60 90
e 71 90
e 87 90
